2-dimensional/CL_01_25_05.vbp
2
1000 1000 
25
269 139 30
110 353 72
388 285 4
367 303 88
314 272 54
297 160 64
182 334 90
236 359 26
225 203 94
315 232 28
175 313 72
169 113 49
166 298 54
131 135 19
132 191 28
334 232 61
105 125 84
111 136 23
220 333 67
396 281 53
109 249 54
123 301 16
105 306 9
123 229 54
343 137 77
