datasets/2-dimensional-benchmark/CL_01_25_05.txt
1000 1000 
0 30 269 139 
1 72 110 353 
2 4 388 285 
3 88 367 303 
4 54 314 272 
5 64 297 160 
6 90 182 334 
7 26 236 359 
8 94 225 203 
9 28 315 232 
10 72 175 313 
11 49 169 113 
12 54 166 298 
13 19 131 135 
14 28 132 191 
15 61 334 232 
16 84 105 125 
17 23 111 136 
18 67 220 333 
19 53 396 281 
20 54 109 249 
21 16 123 301 
22 9 105 306 
23 54 123 229 
24 77 343 137 
